Tried aggregator 2 times.
MIP Presolve eliminated 4 rows and 3 columns.
MIP Presolve added 1 rows and 1 columns.
MIP Presolve modified 7 coefficients.
Aggregator did 7 substitutions.
Reduced MIP has 23 rows, 23 columns, and 54 nonzeros.
Reduced MIP has 14 binaries, 4 generals, 0 SOSs, and 0 indicators.
Presolve time = 0.00 sec. (0.05 ticks)
Found incumbent of value 2.000000 after 0.00 sec. (0.10 ticks)
Probing fixed 3 vars, tightened 5 bounds.
Probing time = 0.00 sec. (0.02 ticks)
Tried aggregator 3 times.
MIP Presolve eliminated 6 rows and 6 columns.
MIP Presolve modified 5 coefficients.
Aggregator did 7 substitutions.
Reduced MIP has 10 rows, 10 columns, and 24 nonzeros.
Reduced MIP has 7 binaries, 3 generals, 0 SOSs, and 0 indicators.
Presolve time = 0.00 sec. (0.07 ticks)
Probing time = 0.00 sec. (0.01 ticks)
Tried aggregator 1 time.
Reduced MIP has 10 rows, 10 columns, and 24 nonzeros.
Reduced MIP has 7 binaries, 3 generals, 0 SOSs, and 0 indicators.
Presolve time = 0.00 sec. (0.01 ticks)
Probing time = 0.00 sec. (0.01 ticks)
Clique table members: 6.
MIP emphasis: balance optimality and feasibility.
MIP search method: dynamic search.
Parallel mode: deterministic, using up to 4 threads.
Root relaxation solution time = 0.00 sec. (0.02 ticks)

        Nodes                                         Cuts/
   Node  Left     Objective  IInf  Best Integer    Best Bound    ItCnt     Gap

*     0+    0                            2.0000        1.0000        5   50.00%
*     0+    0                            1.0000        1.0000        5    0.00%
      0     0        cutoff              1.0000        1.0000        5    0.00%
      0     0        cutoff              1.0000        1.0000        5    0.00%
Elapsed time = 0.01 sec. (0.27 ticks, tree = 0.00 MB, solutions = 2)

Root node processing (before b&c):
  Real time             =    0.01 sec. (0.27 ticks)
Parallel b&c, 4 threads:
  Real time             =    0.00 sec. (0.00 ticks)
  Sync time (average)   =    0.00 sec.
  Wait time (average)   =    0.00 sec.
                          ------------
Total (root+branch&cut) =    0.01 sec. (0.27 ticks)
